\ENCODING=ISO-8859-1
\Problem name: mockup6

Minimize
 obj1: 0 x(1,1) + x(1,2) + 2 x(1,3) + 2 x(1,4) + 3 x(1,5) + 4 x(1,6) + x(2,1)
       + 0 x(2,2) + x(2,3) + x(2,4) + 2 x(2,5) + 3 x(2,6) + 2 x(3,1) + x(3,2)
       + 0 x(3,3) + 2 x(3,4) + x(3,5) + 2 x(3,6) + 2 x(4,1) + x(4,2) + 2 x(4,3)
       + 0 x(4,4) + x(4,5) + 2 x(4,6) + 3 x(5,1) + 2 x(5,2) + x(5,3) + x(5,4)
       + 0 x(5,5) + x(5,6) + 4 x(6,1) + 3 x(6,2) + 2 x(6,3) + 2 x(6,4) + x(6,5)
       + 0 x(6,6) + 0 y(1,1) + 0 y(2,1) + 0 y(2,2) + 0 y(3,1) + 0 y(3,3)
       + 0 y(4,1) + 0 y(4,4) + 0 y(5,1) + 0 y(5,5) + 0 y(6,1) + 0 y(6,6)
Subject To
 degree(1):             x(1,2) + x(1,3) + x(1,4) + x(1,5) + x(1,6)  = 1
 degree(2):             x(2,1) + x(2,3) + x(2,4) + x(2,5) + x(2,6)  = 1
 degree(3):             x(3,1) + x(3,2) + x(3,4) + x(3,5) + x(3,6)  = 1
 degree(4):             x(4,1) + x(4,2) + x(4,3) + x(4,5) + x(4,6)  = 1
 degree(5):             x(5,1) + x(5,2) + x(5,3) + x(5,4) + x(5,6)  = 1
 degree(6):             x(6,1) + x(6,2) + x(6,3) + x(6,4) + x(6,5)  = 1
 degree(7):             x(2,1) + x(3,1) + x(4,1) + x(5,1) + x(6,1)  = 1
 degree(8):             x(1,2) + x(3,2) + x(4,2) + x(5,2) + x(6,2)  = 1
 degree(9):             x(1,3) + x(2,3) + x(4,3) + x(5,3) + x(6,3)  = 1
 degree(10):            x(1,4) + x(2,4) + x(3,4) + x(5,4) + x(6,4)  = 1
 degree(11):            x(1,5) + x(2,5) + x(3,5) + x(4,5) + x(6,5)  = 1
 degree(12):            x(1,6) + x(2,6) + x(3,6) + x(4,6) + x(5,6)  = 1
 inoutflow(1):          - y(2,3) - y(2,4) - y(2,5) - y(2,6) + y(3,2) + y(4,2)
                        + y(5,2) + y(6,2)  = 1
 inoutflow(2):          y(2,3) - y(3,2) - y(3,4) - y(3,5) - y(3,6) + y(4,3)
                        + y(5,3) + y(6,3)  = 1
 inoutflow(3):          y(2,4) + y(3,4) - y(4,2) - y(4,3) - y(4,5) - y(4,6)
                        + y(5,4) + y(6,4)  = 1
 inoutflow(4):          y(2,5) + y(3,5) + y(4,5) - y(5,2) - y(5,3) - y(5,4)
                        - y(5,6) + y(6,5)  = 1
 inoutflow(5):          y(2,6) + y(3,6) + y(4,6) + y(5,6) - y(6,2) - y(6,3)
                        - y(6,4) - y(6,5)  = 1
 node1constraint(1):    - 5 x(1,2) + y(1,2)  = 0
 node1constraint(2):    - 5 x(1,3) + y(1,3)  = 0
 node1constraint(3):    - 5 x(1,4) + y(1,4)  = 0
 node1constraint(4):    - 5 x(1,5) + y(1,5)  = 0
 node1constraint(5):    - 5 x(1,6) + y(1,6)  = 0
 linkingconstraint(1):  - 4 x(2,3) + y(2,3) <= 0
 linkingconstraint(2):  - 4 x(2,4) + y(2,4) <= 0
 linkingconstraint(3):  - 4 x(2,5) + y(2,5) <= 0
 linkingconstraint(4):  - 4 x(2,6) + y(2,6) <= 0
 linkingconstraint(5):  - 4 x(3,2) + y(3,2) <= 0
 linkingconstraint(6):  - 4 x(3,4) + y(3,4) <= 0
 linkingconstraint(7):  - 4 x(3,5) + y(3,5) <= 0
 linkingconstraint(8):  - 4 x(3,6) + y(3,6) <= 0
 linkingconstraint(9):  - 4 x(4,2) + y(4,2) <= 0
 linkingconstraint(10): - 4 x(4,3) + y(4,3) <= 0
 linkingconstraint(11): - 4 x(4,5) + y(4,5) <= 0
 linkingconstraint(12): - 4 x(4,6) + y(4,6) <= 0
 linkingconstraint(13): - 4 x(5,2) + y(5,2) <= 0
 linkingconstraint(14): - 4 x(5,3) + y(5,3) <= 0
 linkingconstraint(15): - 4 x(5,4) + y(5,4) <= 0
 linkingconstraint(16): - 4 x(5,6) + y(5,6) <= 0
 linkingconstraint(17): - 4 x(6,2) + y(6,2) <= 0
 linkingconstraint(18): - 4 x(6,3) + y(6,3) <= 0
 linkingconstraint(19): - 4 x(6,4) + y(6,4) <= 0
 linkingconstraint(20): - 4 x(6,5) + y(6,5) <= 0
Bounds
      x(1,1) = 0
 0 <= x(1,2) <= 1
 0 <= x(1,3) <= 1
 0 <= x(1,4) <= 1
 0 <= x(1,5) <= 1
 0 <= x(1,6) <= 1
 0 <= x(2,1) <= 1
      x(2,2) = 0
 0 <= x(2,3) <= 1
 0 <= x(2,4) <= 1
 0 <= x(2,5) <= 1
 0 <= x(2,6) <= 1
 0 <= x(3,1) <= 1
 0 <= x(3,2) <= 1
      x(3,3) = 0
 0 <= x(3,4) <= 1
 0 <= x(3,5) <= 1
 0 <= x(3,6) <= 1
 0 <= x(4,1) <= 1
 0 <= x(4,2) <= 1
 0 <= x(4,3) <= 1
      x(4,4) = 0
 0 <= x(4,5) <= 1
 0 <= x(4,6) <= 1
 0 <= x(5,1) <= 1
 0 <= x(5,2) <= 1
 0 <= x(5,3) <= 1
 0 <= x(5,4) <= 1
      x(5,5) = 0
 0 <= x(5,6) <= 1
 0 <= x(6,1) <= 1
 0 <= x(6,2) <= 1
 0 <= x(6,3) <= 1
 0 <= x(6,4) <= 1
 0 <= x(6,5) <= 1
      x(6,6) = 0
      y(1,1) = 0
 0 <= y(1,2) <= 4
 0 <= y(1,3) <= 4
 0 <= y(1,4) <= 4
 0 <= y(1,5) <= 4
 0 <= y(1,6) <= 4
      y(2,1) = 0
      y(2,2) = 0
 0 <= y(2,3) <= 4
 0 <= y(2,4) <= 4
 0 <= y(2,5) <= 4
 0 <= y(2,6) <= 4
      y(3,1) = 0
 0 <= y(3,2) <= 4
      y(3,3) = 0
 0 <= y(3,4) <= 4
 0 <= y(3,5) <= 4
 0 <= y(3,6) <= 4
      y(4,1) = 0
 0 <= y(4,2) <= 4
 0 <= y(4,3) <= 4
      y(4,4) = 0
 0 <= y(4,5) <= 4
 0 <= y(4,6) <= 4
      y(5,1) = 0
 0 <= y(5,2) <= 4
 0 <= y(5,3) <= 4
 0 <= y(5,4) <= 4
      y(5,5) = 0
 0 <= y(5,6) <= 4
      y(6,1) = 0
 0 <= y(6,2) <= 4
 0 <= y(6,3) <= 4
 0 <= y(6,4) <= 4
 0 <= y(6,5) <= 4
      y(6,6) = 0
Binaries
 x(1,1)  x(1,2)  x(1,3)  x(1,4)  x(1,5)  x(1,6)  x(2,1)  x(2,2)  x(2,3) 
 x(2,4)  x(2,5)  x(2,6)  x(3,1)  x(3,2)  x(3,3)  x(3,4)  x(3,5)  x(3,6) 
 x(4,1)  x(4,2)  x(4,3)  x(4,4)  x(4,5)  x(4,6)  x(5,1)  x(5,2)  x(5,3) 
 x(5,4)  x(5,5)  x(5,6)  x(6,1)  x(6,2)  x(6,3)  x(6,4)  x(6,5)  x(6,6) 
Generals
 y(1,1)  y(1,2)  y(1,3)  y(1,4)  y(1,5)  y(1,6)  y(2,1)  y(2,2)  y(2,3) 
 y(2,4)  y(2,5)  y(2,6)  y(3,1)  y(3,2)  y(3,3)  y(3,4)  y(3,5)  y(3,6) 
 y(4,1)  y(4,2)  y(4,3)  y(4,4)  y(4,5)  y(4,6)  y(5,1)  y(5,2)  y(5,3) 
 y(5,4)  y(5,5)  y(5,6)  y(6,1)  y(6,2)  y(6,3)  y(6,4)  y(6,5)  y(6,6) 
End
